p cnf 288 768
1 2 -3 0
1 -2 3 0
-1 2 3 0
-1 -2 -3 0
4 5 6 0
4 -5 -6 0
-4 5 -6 0
-4 -5 6 0
7 8 -9 0
7 -8 9 0
-7 8 9 0
-7 -8 -9 0
10 11 -12 0
10 -11 12 0
-10 11 12 0
-10 -11 -12 0
13 14 15 0
13 -14 -15 0
-13 14 -15 0
-13 -14 15 0
16 17 18 0
16 -17 -18 0
-16 17 -18 0
-16 -17 18 0
19 20 -21 0
19 -20 21 0
-19 20 21 0
-19 -20 -21 0
22 23 24 0
22 -23 -24 0
-22 23 -24 0
-22 -23 24 0
22 25 26 0
22 -25 -26 0
-22 25 -26 0
-22 -25 26 0
7 27 -28 0
7 -27 28 0
-7 27 28 0
-7 -27 -28 0
29 30 -31 0
29 -30 31 0
-29 30 31 0
-29 -30 -31 0
32 33 34 0
32 -33 -34 0
-32 33 -34 0
-32 -33 34 0
35 36 37 0
35 -36 -37 0
-35 36 -37 0
-35 -36 37 0
38 39 -40 0
38 -39 40 0
-38 39 40 0
-38 -39 -40 0
41 42 -43 0
41 -42 43 0
-41 42 43 0
-41 -42 -43 0
16 44 45 0
16 -44 -45 0
-16 44 -45 0
-16 -44 45 0
46 47 48 0
46 -47 -48 0
-46 47 -48 0
-46 -47 48 0
35 49 -50 0
35 -49 50 0
-35 49 50 0
-35 -49 -50 0
51 52 53 0
51 -52 -53 0
-51 52 -53 0
-51 -52 53 0
54 55 56 0
54 -55 -56 0
-54 55 -56 0
-54 -55 56 0
57 58 59 0
57 -58 -59 0
-57 58 -59 0
-57 -58 59 0
60 61 62 0
60 -61 -62 0
-60 61 -62 0
-60 -61 62 0
63 64 65 0
63 -64 -65 0
-63 64 -65 0
-63 -64 65 0
32 66 -67 0
32 -66 67 0
-32 66 67 0
-32 -66 -67 0
68 69 70 0
68 -69 -70 0
-68 69 -70 0
-68 -69 70 0
54 71 72 0
54 -71 -72 0
-54 71 -72 0
-54 -71 72 0
25 73 74 0
25 -73 -74 0
-25 73 -74 0
-25 -73 74 0
75 76 77 0
75 -76 -77 0
-75 76 -77 0
-75 -76 77 0
78 79 -80 0
78 -79 80 0
-78 79 80 0
-78 -79 -80 0
81 82 -83 0
81 -82 83 0
-81 82 83 0
-81 -82 -83 0
84 85 -86 0
84 -85 86 0
-84 85 86 0
-84 -85 -86 0
1 87 88 0
1 -87 -88 0
-1 87 -88 0
-1 -87 88 0
4 89 90 0
4 -89 -90 0
-4 89 -90 0
-4 -89 90 0
91 92 -93 0
91 -92 93 0
-91 92 93 0
-91 -92 -93 0
94 95 96 0
94 -95 -96 0
-94 95 -96 0
-94 -95 96 0
97 98 99 0
97 -98 -99 0
-97 98 -99 0
-97 -98 99 0
100 101 -102 0
100 -101 102 0
-100 101 102 0
-100 -101 -102 0
103 104 -105 0
103 -104 105 0
-103 104 105 0
-103 -104 -105 0
57 106 -107 0
57 -106 107 0
-57 106 107 0
-57 -106 -107 0
108 109 -110 0
108 -109 110 0
-108 109 110 0
-108 -109 -110 0
111 112 113 0
111 -112 -113 0
-111 112 -113 0
-111 -112 113 0
114 115 116 0
114 -115 -116 0
-114 115 -116 0
-114 -115 116 0
13 81 -117 0
13 -81 117 0
-13 81 117 0
-13 -81 -117 0
41 118 119 0
41 -118 -119 0
-41 118 -119 0
-41 -118 119 0
120 121 -122 0
120 -121 122 0
-120 121 122 0
-120 -121 -122 0
123 124 -125 0
123 -124 125 0
-123 124 125 0
-123 -124 -125 0
10 126 127 0
10 -126 -127 0
-10 126 -127 0
-10 -126 127 0
33 128 -129 0
33 -128 129 0
-33 128 129 0
-33 -128 -129 0
8 130 -131 0
8 -130 131 0
-8 130 131 0
-8 -130 -131 0
100 132 -133 0
100 -132 133 0
-100 132 133 0
-100 -132 -133 0
66 78 -108 0
66 -78 108 0
-66 78 108 0
-66 -78 -108 0
134 135 136 0
134 -135 -136 0
-134 135 -136 0
-134 -135 136 0
132 137 138 0
132 -137 -138 0
-132 137 -138 0
-132 -137 138 0
5 71 101 0
5 -71 -101 0
-5 71 -101 0
-5 -71 101 0
79 139 -140 0
79 -139 140 0
-79 139 140 0
-79 -139 -140 0
141 142 143 0
141 -142 -143 0
-141 142 -143 0
-141 -142 143 0
44 144 145 0
44 -144 -145 0
-44 144 -145 0
-44 -144 145 0
146 147 -148 0
146 -147 148 0
-146 147 148 0
-146 -147 -148 0
58 149 150 0
58 -149 -150 0
-58 149 -150 0
-58 -149 150 0
103 151 -152 0
103 -151 152 0
-103 151 152 0
-103 -151 -152 0
11 60 153 0
11 -60 -153 0
-11 60 -153 0
-11 -60 153 0
149 154 -155 0
149 -154 155 0
-149 154 155 0
-149 -154 -155 0
26 156 -157 0
26 -156 157 0
-26 156 157 0
-26 -156 -157 0
156 158 159 0
156 -158 -159 0
-156 158 -159 0
-156 -158 159 0
73 151 160 0
73 -151 -160 0
-73 151 -160 0
-73 -151 160 0
161 162 163 0
161 -162 -163 0
-161 162 -163 0
-161 -162 163 0
164 165 -166 0
164 -165 166 0
-164 165 166 0
-164 -165 -166 0
87 167 -168 0
87 -167 168 0
-87 167 168 0
-87 -167 -168 0
120 169 170 0
120 -169 -170 0
-120 169 -170 0
-120 -169 170 0
17 46 171 0
17 -46 -171 0
-17 46 -171 0
-17 -46 171 0
2 109 172 0
2 -109 -172 0
-2 109 -172 0
-2 -109 172 0
121 173 -174 0
121 -173 174 0
-121 173 174 0
-121 -173 -174 0
34 91 -175 0
34 -91 175 0
-34 91 175 0
-34 -91 -175 0
176 177 -178 0
176 -177 178 0
-176 177 178 0
-176 -177 -178 0
179 180 181 0
179 -180 -181 0
-179 180 -181 0
-179 -180 181 0
23 182 183 0
23 -182 -183 0
-23 182 -183 0
-23 -182 183 0
84 184 185 0
84 -184 -185 0
-84 184 -185 0
-84 -184 185 0
186 187 188 0
186 -187 -188 0
-186 187 -188 0
-186 -187 188 0
6 19 29 0
6 -19 -29 0
-6 19 -29 0
-6 -19 29 0
189 190 -191 0
189 -190 191 0
-189 190 191 0
-189 -190 -191 0
160 192 193 0
160 -192 -193 0
-160 192 -193 0
-160 -192 193 0
194 195 -196 0
194 -195 196 0
-194 195 196 0
-194 -195 -196 0
24 30 63 0
24 -30 -63 0
-24 30 -63 0
-24 -30 63 0
9 197 198 0
9 -197 -198 0
-9 197 -198 0
-9 -197 198 0
130 199 200 0
130 -199 -200 0
-130 199 -200 0
-130 -199 200 0
20 104 164 0
20 -104 -164 0
-20 104 -164 0
-20 -104 164 0
68 201 202 0
68 -201 -202 0
-68 201 -202 0
-68 -201 202 0
158 173 -203 0
158 -173 203 0
-158 173 203 0
-158 -173 -203 0
92 97 204 0
92 -97 -204 0
-92 97 -204 0
-92 -97 204 0
165 205 -206 0
165 -205 206 0
-165 205 206 0
-165 -205 -206 0
123 207 208 0
123 -207 -208 0
-123 207 -208 0
-123 -207 208 0
114 209 210 0
114 -209 -210 0
-114 209 -210 0
-114 -209 210 0
88 211 212 0
88 -211 -212 0
-88 211 -212 0
-88 -211 212 0
124 213 214 0
124 -213 -214 0
-124 213 -214 0
-124 -213 214 0
179 215 -216 0
179 -215 216 0
-179 215 216 0
-179 -215 -216 0
38 126 217 0
38 -126 -217 0
-38 126 -217 0
-38 -126 217 0
36 201 -218 0
36 -201 218 0
-36 201 218 0
-36 -201 -218 0
219 220 221 0
219 -220 -221 0
-219 220 -221 0
-219 -220 221 0
75 94 -203 0
75 -94 203 0
-75 94 203 0
-75 -94 -203 0
159 222 -223 0
159 -222 223 0
-159 222 223 0
-159 -222 -223 0
80 102 224 0
80 -102 -224 0
-80 102 -224 0
-80 -102 224 0
64 150 225 0
64 -150 -225 0
-64 150 -225 0
-64 -150 225 0
219 226 227 0
219 -226 -227 0
-219 226 -227 0
-219 -226 227 0
39 228 229 0
39 -228 -229 0
-39 228 -229 0
-39 -228 229 0
127 230 231 0
127 -230 -231 0
-127 230 -231 0
-127 -230 231 0
134 199 -232 0
134 -199 232 0
-134 199 232 0
-134 -199 -232 0
89 233 -234 0
89 -233 234 0
-89 233 234 0
-89 -233 -234 0
65 135 -235 0
65 -135 235 0
-65 135 235 0
-65 -135 -235 0
144 236 -237 0
144 -236 237 0
-144 236 237 0
-144 -236 -237 0
47 171 228 0
47 -171 -228 0
-47 171 -228 0
-47 -171 228 0
51 90 141 0
51 -90 -141 0
-51 90 -141 0
-51 -90 141 0
42 186 238 0
42 -186 -238 0
-42 186 -238 0
-42 -186 238 0
37 239 -240 0
37 -239 240 0
-37 239 240 0
-37 -239 -240 0
122 180 -241 0
122 -180 241 0
-122 180 241 0
-122 -180 -241 0
12 174 242 0
12 -174 -242 0
-12 174 -242 0
-12 -174 242 0
55 74 184 0
55 -74 -184 0
-55 74 -184 0
-55 -74 184 0
52 176 -243 0
52 -176 243 0
-52 176 243 0
-52 -176 -243 0
18 146 239 0
18 -146 -239 0
-18 146 -239 0
-18 -146 239 0
244 245 246 0
244 -245 -246 0
-244 245 -246 0
-244 -245 246 0
240 247 -248 0
240 -247 248 0
-240 247 248 0
-240 -247 -248 0
53 93 -249 0
53 -93 249 0
-53 93 249 0
-53 -93 -249 0
111 250 -251 0
111 -250 251 0
-111 250 251 0
-111 -250 -251 0
76 169 220 0
76 -169 -220 0
-76 169 -220 0
-76 -169 220 0
189 209 252 0
189 -209 -252 0
-189 209 -252 0
-189 -209 252 0
207 213 253 0
207 -213 -253 0
-207 213 -253 0
-207 -213 253 0
177 243 247 0
177 -243 -247 0
-177 243 -247 0
-177 -243 247 0
192 254 255 0
192 -254 -255 0
-192 254 -255 0
-192 -254 255 0
117 197 256 0
117 -197 -256 0
-117 197 -256 0
-117 -197 256 0
128 256 257 0
128 -256 -257 0
-128 256 -257 0
-128 -256 257 0
48 190 -258 0
48 -190 258 0
-48 190 258 0
-48 -190 -258 0
194 230 259 0
194 -230 -259 0
-194 230 -259 0
-194 -230 259 0
252 260 -261 0
252 -260 261 0
-252 260 261 0
-252 -260 -261 0
129 222 262 0
129 -222 -262 0
-129 222 -262 0
-129 -222 262 0
147 187 244 0
147 -187 -244 0
-147 187 -244 0
-147 -187 244 0
136 226 -263 0
136 -226 263 0
-136 226 263 0
-136 -226 -263 0
235 264 265 0
235 -264 -265 0
-235 264 -265 0
-235 -264 265 0
215 229 -266 0
215 -229 266 0
-215 229 266 0
-215 -229 -266 0
182 250 267 0
182 -250 -267 0
-182 250 -267 0
-182 -250 267 0
200 202 268 0
200 -202 -268 0
-200 202 -268 0
-200 -202 268 0
167 233 -269 0
167 -233 269 0
-167 233 269 0
-167 -233 -269 0
82 85 270 0
82 -85 -270 0
-82 85 -270 0
-82 -85 270 0
61 106 -110 0
61 -106 110 0
-61 106 110 0
-61 -106 -110 0
59 161 -271 0
59 -161 271 0
-59 161 271 0
-59 -161 -271 0
3 270 -272 0
3 -270 272 0
-3 270 272 0
-3 -270 -272 0
178 188 268 0
178 -188 -268 0
-178 188 -268 0
-178 -188 268 0
139 211 273 0
139 -211 -273 0
-139 211 -273 0
-139 -211 273 0
152 198 -274 0
152 -198 274 0
-152 198 274 0
-152 -198 -274 0
223 254 -267 0
223 -254 267 0
-223 254 267 0
-223 -254 -267 0
191 218 -245 0
191 -218 245 0
-191 218 245 0
-191 -218 -245 0
208 242 275 0
208 -242 -275 0
-208 242 -275 0
-208 -242 275 0
27 112 276 0
27 -112 -276 0
-27 112 -276 0
-27 -112 276 0
183 216 -277 0
183 -216 277 0
-183 216 277 0
-183 -216 -277 0
14 148 248 0
14 -148 -248 0
-14 148 -248 0
-14 -148 248 0
105 234 278 0
105 -234 -278 0
-105 234 -278 0
-105 -234 278 0
162 257 -279 0
162 -257 279 0
-162 257 279 0
-162 -257 -279 0
69 231 269 0
69 -231 -269 0
-69 231 -269 0
-69 -231 269 0
98 185 280 0
98 -185 -280 0
-98 185 -280 0
-98 -185 280 0
154 236 253 0
154 -236 -253 0
-154 236 -253 0
-154 -236 253 0
21 170 -259 0
21 -170 259 0
-21 170 259 0
-21 -170 -259 0
155 166 281 0
155 -166 -281 0
-155 166 -281 0
-155 -166 281 0
83 262 282 0
83 -262 -282 0
-83 262 -282 0
-83 -262 282 0
67 266 276 0
67 -266 -276 0
-67 266 -276 0
-67 -266 276 0
172 210 283 0
172 -210 -283 0
-172 210 -283 0
-172 -210 283 0
86 212 -284 0
86 -212 284 0
-86 212 284 0
-86 -212 -284 0
137 205 -251 0
137 -205 251 0
-137 205 251 0
-137 -205 -251 0
49 115 264 0
49 -115 -264 0
-49 115 -264 0
-49 -115 264 0
181 193 285 0
181 -193 -285 0
-181 193 -285 0
-181 -193 285 0
133 273 -275 0
133 -273 275 0
-133 273 275 0
-133 -273 -275 0
241 284 286 0
241 -284 -286 0
-241 284 -286 0
-241 -284 286 0
118 163 283 0
118 -163 -283 0
-118 163 -283 0
-118 -163 283 0
214 278 -287 0
214 -278 287 0
-214 278 287 0
-214 -278 -287 0
45 142 -153 0
45 -142 153 0
-45 142 153 0
-45 -142 -153 0
131 143 -157 0
131 -143 157 0
-131 143 157 0
-131 -143 -157 0
116 195 238 0
116 -195 -238 0
-116 195 -238 0
-116 -195 238 0
204 227 -280 0
204 -227 280 0
-204 227 280 0
-204 -227 -280 0
28 62 288 0
28 -62 -288 0
-28 62 -288 0
-28 -62 288 0
77 95 175 0
77 -95 -175 0
-77 95 -175 0
-77 -95 175 0
168 260 -272 0
168 -260 272 0
-168 260 272 0
-168 -260 -272 0
50 99 -196 0
50 -99 196 0
-50 99 196 0
-50 -99 -196 0
15 96 271 0
15 -96 -271 0
-15 96 -271 0
-15 -96 271 0
40 138 -261 0
40 -138 261 0
-40 138 261 0
-40 -138 -261 0
70 277 287 0
70 -277 -287 0
-70 277 -287 0
-70 -277 287 0
125 265 -274 0
125 -265 274 0
-125 265 274 0
-125 -265 -274 0
56 107 246 0
56 -107 -246 0
-56 107 -246 0
-56 -107 246 0
31 221 263 0
31 -221 -263 0
-31 221 -263 0
-31 -221 263 0
217 281 282 0
217 -281 -282 0
-217 281 -282 0
-217 -281 282 0
232 237 286 0
232 -237 -286 0
-232 237 -286 0
-232 -237 286 0
72 119 249 0
72 -119 -249 0
-72 119 -249 0
-72 -119 249 0
225 255 288 0
225 -255 -288 0
-225 255 -288 0
-225 -255 288 0
113 140 145 0
113 -140 -145 0
-113 140 -145 0
-113 -140 145 0
43 206 279 0
43 -206 -279 0
-43 206 -279 0
-43 -206 279 0
224 258 -285 0
224 -258 285 0
-224 258 285 0
-224 -258 -285 0
